# Solution for model GasLib-40
# Objective value = 1.1503393258637018e+01
loadshed[innode_1] 0
loadshed[innode_2] 0
loadshed[innode_3] 0
loadshed[innode_4] 0
loadshed[innode_5] 0
loadshed[innode_6] 0
loadshed[innode_7] 0
loadshed[innode_8] 0
loadshed[source_1] -2.4948049086313517e-01
loadshed[source_2] 1.3835631398430692e-01
loadshed[source_3] 1.8388888714636842e-01
loadshed[sink_1] 0
loadshed[sink_2] 0
loadshed[sink_3] 0
loadshed[sink_4] 0
loadshed[sink_5] 0
loadshed[sink_6] 0
loadshed[sink_7] 0
loadshed[sink_8] 0
loadshed[sink_9] 0
loadshed[sink_10] 0
loadshed[sink_11] 0
loadshed[sink_12] 0.703392199254238
loadshed[sink_13] 0
loadshed[sink_14] 0
loadshed[sink_15] 0
loadshed[sink_16] 0
loadshed[sink_17] 0
loadshed[sink_18] 0
loadshed[sink_19] 0
loadshed[sink_20] 0
loadshed[sink_21] 0
loadshed[sink_22] 0
loadshed[sink_23] 0
loadshed[sink_24] 0
loadshed[sink_25] 0
loadshed[sink_26] 0
loadshed[sink_27] 0
loadshed[sink_28] 0
loadshed[sink_29] 0
flow[source_1,sink_3] 1.9753071787846716e+02
flow[innode_1,sink_16] 1.6354166666666970e+01
flow[innode_6,sink_13] -1.4540065861894917e+01
flow[sink_13,sink_14] -3.0894232528561584e+01
flow[sink_14,sink_10] -4.7248399195228252e+01
flow[sink_25,sink_26] 1.7164382894053193e+02
flow[sink_26,sink_9] 1.3568410674136302e+02
flow[sink_9,sink_18] 1.1932994007469635e+02
flow[sink_26,sink_4] 1.9605555532502819e+01
flow[sink_4,sink_20] 3.2513888658361338e+00
flow[sink_18,sink_6] 1.0297577340802968e+02
flow[sink_25,innode_8] -1.6482238454513080e+02
flow[sink_6,sink_7] 5.3913273408029653e+01
flow[sink_6,sink_22] 3.2708333333333641e+01
flow[sink_7,sink_24] 3.7559106741362982e+01
flow[sink_22,sink_1] 1.6354166666666970e+01
flow[sink_24,sink_21] 2.1204940074696317e+01
flow[sink_21,sink_12] 4.8507734080296494e+00
flow[sink_7,sink_5] 0
flow[sink_5,sink_17] -1.6354166666667197e+01
flow[sink_17,sink_4] 0
flow[sink_17,sink_8] -32.7083333333339
flow[sink_3,sink_23] 16.3541666666697
flow[sink_8,sink_20] -4.9062500000000568e+01
flow[sink_25,sink_20] 6.2165277800830779e+01
flow[sink_25,sink_15] -7.0800823001003963e+01
flow[sink_15,sink_29] -1.0350915633435488e+02
flow[sink_29,sink_28] 1.6354166666667879e+01
flow[sink_29,sink_2] 0
flow[sink_2,sink_15] -1.6354166666684250e+01
flow[sink_29,innode_7] -1.3621748966768925e+02
flow[innode_4,sink_19] 5.0421056352343392e+01
flow[sink_19,innode_3] 4.6999312279187535e+01
flow[innode_4,innode_5] 7.8598176176218573e+01
flow[sink_27,innode_5] -7.8598176176218573e+01
flow[sink_27,sink_19] 62.2440095095519
flow[sink_10,sink_11] 3.2708333333333641e+01
flow[sink_10,innode_2] -4.9311586916041023e+01
flow[sink_10,innode_3] -4.6999312279187535e+01
flow[innode_6,sink_25] 1.4540065861894917e+01
flow[sink_11,innode_1] 1.6354166666666970e+01
flow[sink_19,innode_2] 4.9311586916041023e+01
flow[source_3,innode_4] 1.2901923252856196e+02
flow[source_2,innode_7] 1.3621748966768925e+02
flow[sink_3,innode_8] 1.6482238454513080e+02
pressure[innode_1] 7.6212542193942213e+01
pressure[innode_2] 7.8970564533582746e+01
pressure[innode_3] 7.8866489878635278e+01
pressure[innode_4] 81.01325
pressure[innode_5] 8.0959186029931331e+01
pressure[innode_6] 73.9940157493197
pressure[innode_7] 81.01325
pressure[innode_8] 8.0352980269601616e+01
pressure[source_1] 81.01325
pressure[source_2] 81.01325
pressure[source_3] 81.01325
pressure[sink_1] 4.4615647442515680e+01
pressure[sink_2] 7.4284075980975970e+01
pressure[sink_3] 8.0352980269601616e+01
pressure[sink_4] 5.9412540606023477e+01
pressure[sink_5] 5.3302599733746163e+01
pressure[sink_6] 4.6716725052903051e+01
pressure[sink_7] 4.5976624318804483e+01
pressure[sink_8] 5.5755037329928058e+01
pressure[sink_9] 5.3784197698358490e+01
pressure[sink_10] 7.6364243501545758e+01
pressure[sink_11] 7.6212542193942213e+01
pressure[sink_12] 1.0132500000000029e+00
pressure[sink_13] 74.0741727025456
pressure[sink_14] 7.4129460563262185e+01
pressure[sink_15] 7.4337468730742415e+01
pressure[sink_16] 7.5190892359124533e+01
pressure[sink_17] 5.4520866939100912e+01
pressure[sink_18] 4.9466484802067129e+01
pressure[sink_19] 7.8970564533582746e+01
pressure[sink_20] 5.9174003600692615e+01
pressure[sink_21] 2.7394206624396911e+00
pressure[sink_22] 4.5679416584870687e+01
pressure[sink_23] 8.0188262257941830e+01
pressure[sink_24] 2.9742456720279478e+00
pressure[sink_25] 73.9940157493197
pressure[sink_26] 6.1905241677868787e+01
pressure[sink_27] 8.0306966401482171e+01
pressure[sink_28] 7.7074683509174818e+01
pressure[sink_29] 77.369965782792
interdiction[source_1,sink_3] 0
interdiction[innode_1,sink_16] 0
interdiction[innode_6,sink_13] 0
interdiction[sink_13,sink_14] 0
interdiction[sink_14,sink_10] 0
interdiction[sink_25,sink_26] 0
interdiction[sink_26,sink_9] 0
interdiction[sink_9,sink_18] 0
interdiction[sink_26,sink_4] 0
interdiction[sink_4,sink_20] 0
interdiction[sink_18,sink_6] 0
interdiction[sink_25,innode_8] 0
interdiction[sink_6,sink_7] 0
interdiction[sink_6,sink_22] 0
interdiction[sink_7,sink_24] 0
interdiction[sink_22,sink_1] 0
interdiction[sink_24,sink_21] 0
interdiction[sink_21,sink_12] 0
interdiction[sink_7,sink_5] 1
interdiction[sink_5,sink_17] 0
interdiction[sink_17,sink_4] 1
interdiction[sink_17,sink_8] 0
interdiction[sink_3,sink_23] 0
interdiction[sink_8,sink_20] 0
interdiction[sink_25,sink_20] 0
interdiction[sink_25,sink_15] 0
interdiction[sink_15,sink_29] 0
interdiction[sink_29,sink_28] 0
interdiction[sink_29,sink_2] 1
interdiction[sink_2,sink_15] 0
interdiction[sink_29,innode_7] 0
interdiction[innode_4,sink_19] 0
interdiction[sink_19,innode_3] 0
interdiction[innode_4,innode_5] 0
interdiction[sink_27,innode_5] 0
interdiction[sink_27,sink_19] 0
interdiction[sink_10,sink_11] 0
interdiction[sink_10,innode_2] 0
interdiction[sink_10,innode_3] 0
interdiction[innode_6,sink_25] 0
interdiction[sink_11,innode_1] 0
interdiction[sink_19,innode_2] 0
interdiction[source_3,innode_4] 0
interdiction[source_2,innode_7] 0
interdiction[sink_3,innode_8] 0
WCcheckFlow[source_1,sink_3] 39
WCcheckFlow[innode_1,sink_16] 1
WCcheckFlow[innode_6,sink_13] 13
WCcheckFlow[sink_13,sink_14] 12
WCcheckFlow[sink_14,sink_10] 11
WCcheckFlow[sink_25,sink_26] 15
WCcheckFlow[sink_26,sink_9] 9
WCcheckFlow[sink_9,sink_18] 8
WCcheckFlow[sink_26,sink_4] 5
WCcheckFlow[sink_4,sink_20] 4
WCcheckFlow[sink_18,sink_6] 7
WCcheckFlow[sink_25,innode_8] -36
WCcheckFlow[sink_6,sink_7] 4
WCcheckFlow[sink_6,sink_22] 2
WCcheckFlow[sink_7,sink_24] 3
WCcheckFlow[sink_22,sink_1] 1
WCcheckFlow[sink_24,sink_21] 2
WCcheckFlow[sink_21,sink_12] 1
WCcheckFlow[sink_7,sink_5] 0
WCcheckFlow[sink_5,sink_17] -1
WCcheckFlow[sink_17,sink_4] 0
WCcheckFlow[sink_17,sink_8] -2
WCcheckFlow[sink_3,sink_23] 1
WCcheckFlow[sink_8,sink_20] -3
WCcheckFlow[sink_25,sink_20] 0
WCcheckFlow[sink_25,sink_15] 6
WCcheckFlow[sink_15,sink_29] 4
WCcheckFlow[sink_29,sink_28] 1
WCcheckFlow[sink_29,sink_2] 0
WCcheckFlow[sink_2,sink_15] -1
WCcheckFlow[sink_29,innode_7] 2
WCcheckFlow[innode_4,sink_19] -4
WCcheckFlow[sink_19,innode_3] -5
WCcheckFlow[innode_4,innode_5] 2
WCcheckFlow[sink_27,innode_5] -1
WCcheckFlow[sink_27,sink_19] 0
WCcheckFlow[sink_10,sink_11] 3
WCcheckFlow[sink_10,innode_2] 1
WCcheckFlow[sink_10,innode_3] 6
WCcheckFlow[innode_6,sink_25] -14
WCcheckFlow[sink_11,innode_1] 2
WCcheckFlow[sink_19,innode_2] 0
WCcheckFlow[source_3,innode_4] -1
WCcheckFlow[source_2,innode_7] -1
WCcheckFlow[sink_3,innode_8] 37
